20	5
0	10	3	4	10	5	9	6	8	7	1	2
1	2	20	12
2	3	17	19	14
3	1	12
4	1	11
5	1	15
6	1	13
7	2	18	19
8	2	17	18
9	1	19
10	2	11	14
11	2	15	19
12	1	14
13	5	15	17	18	20	12
14	1	21
15	1	21
16	1	21
17	1	21
18	1	21
19	1	21
20	1	21
21	0
0	0	0	0	0	0	0
1	2	1	3	3	4	2
2	10	2	3	5	5	1
3	1	2	4	3	4	5
4	10	4	2	5	4	4
5	1	1	4	5	5	2
6	6	5	4	4	5	2
7	1	4	1	2	3	1
8	10	1	4	1	5	2
9	2	3	2	3	3	2
10	7	3	3	2	5	2
11	4	2	2	5	4	2
12	1	1	2	3	5	3
13	4	4	4	2	4	1
14	1	1	1	3	1	4
15	3	4	3	4	5	5
16	5	4	2	3	1	3
17	9	3	5	2	1	5
18	9	1	3	5	1	4
19	7	1	2	1	2	2
20	5	4	2	4	3	4
21	0	0	0	0	0	0
5	5	5	5	5
